Normalized Data/p03_26_normalized_splitx10_0.vrp
NAME:p03_26_NORMALIZED_splitx10_
BEST_KNOWN: 0
COMMENT: 0
DIMENSION: 388
CAPACITY: 1000
EDGE_WEIGHT_FORMAT: FUNCTION
EDGE_WEIGHT_TYPE: EXACT_2D
NODE_COORD_SECTION
1 0.00000 0.00000
2 -17 -43
3 -17 -43
4 -17 -43
5 -17 -43
6 -17 -43
7 -17 -43
8 -23 11
9 -23 11
10 -35 -44
11 -35 -44
12 -35 -44
13 -35 -44
14 -35 -44
15 -35 -44
16 -47 -36
17 -47 -36
18 -47 -36
19 26 -37
20 37 -43
21 37 -43
22 37 -43
23 37 -43
24 18 -21
25 18 -21
26 21 36
27 21 36
28 21 36
29 21 36
30 -26 29
31 -26 29
32 -26 29
33 -26 29
34 -26 29
35 -46 -18
36 -46 -18
37 -46 -18
38 -46 -18
39 -46 -18
40 15 -43
41 15 -43
42 15 -43
43 15 -43
44 22 45
45 -45 -43
46 -45 -43
47 -45 -43
48 -45 -43
49 -45 -43
50 -45 -43
51 1 22
52 1 22
53 1 22
54 1 22
55 1 22
56 1 22
57 1 22
58 17 -29
59 17 -29
60 17 -29
61 17 -29
62 -31 15
63 -31 15
64 -31 15
65 -39 -6
66 -39 -6
67 -39 -6
68 -39 -6
69 -39 -6
70 -43 29
71 -43 29
72 -43 29
73 -43 29
74 27 -16
75 27 -16
76 27 -16
77 27 -16
78 27 -16
79 27 -16
80 35 19
81 -13 -42
82 -13 -42
83 -13 -42
84 -13 -42
85 -13 -42
86 -13 -42
87 -1 -26
88 -1 -26
89 -1 -26
90 -1 -26
91 -33 -23
92 -33 -23
93 -33 -23
94 -33 -23
95 -33 -23
96 39 -18
97 39 -18
98 39 -18
99 -48 42
100 -48 42
101 -48 42
102 -48 42
103 28 -18
104 28 -18
105 28 -18
106 28 -18
107 28 -18
108 28 -18
109 28 -18
110 -17 -47
111 -17 -47
112 -17 -47
113 -16 -10
114 -16 -10
115 -16 -10
116 -16 -10
117 -20 -47
118 -20 -47
119 -20 -47
120 -20 -47
121 -20 -47
122 -20 -47
123 -3 -15
124 -3 -15
125 -3 -15
126 -3 -15
127 -3 -15
128 -49 26
129 -49 26
130 -49 26
131 -34 -38
132 -34 -38
133 -34 -38
134 -33 -43
135 -33 -43
136 -33 -43
137 -33 -43
138 -33 -43
139 -33 -43
140 25 34
141 25 34
142 25 34
143 25 34
144 -28 4
145 -28 4
146 -28 4
147 -28 4
148 -7 -34
149 -7 -34
150 -7 -34
151 -41 -47
152 -41 -47
153 -41 -47
154 13 -50
155 13 -50
156 13 -50
157 13 -50
158 13 -50
159 33 30
160 33 30
161 33 30
162 22 -40
163 22 -40
164 -32 -7
165 -32 -7
166 -32 -7
167 -32 -7
168 -16 -23
169 -16 -23
170 -16 -23
171 -16 -23
172 -16 -23
173 -50 -47
174 -50 -47
175 -50 -47
176 -50 -47
177 -50 -47
178 -50 -47
179 7 5
180 -48 -50
181 -48 -50
182 -48 -50
183 -48 -50
184 -3 -46
185 -3 -46
186 -3 -46
187 -41 -13
188 -41 -13
189 -41 -13
190 -41 -13
191 34 -22
192 34 -22
193 34 -22
194 34 -22
195 34 -22
196 19 -19
197 19 -19
198 19 -19
199 19 -19
200 19 -19
201 -21 18
202 -21 18
203 -21 18
204 -21 18
205 27 2
206 27 2
207 27 2
208 27 2
209 27 2
210 27 2
211 -41 -21
212 -41 -21
213 -41 -21
214 -41 -21
215 -20 -22
216 -20 -22
217 -20 -22
218 45 -22
219 45 -22
220 -23 -36
221 -23 -36
222 -23 -36
223 -23 -36
224 -23 -36
225 38 37
226 38 37
227 -22 -1
228 -22 -1
229 -22 -1
230 -22 -1
231 -22 -1
232 -5 39
233 -5 39
234 -5 39
235 -5 39
236 -5 39
237 -5 39
238 5 -29
239 5 -29
240 5 -29
241 -31 -9
242 -31 -9
243 -31 -9
244 -31 -9
245 32 -47
246 32 -47
247 32 -47
248 32 -47
249 32 -47
250 32 -47
251 -10 -5
252 -10 -5
253 -10 -5
254 -10 -5
255 -10 -5
256 -5 16
257 -5 16
258 -5 16
259 -5 16
260 -7 -38
261 -7 -38
262 -47 14
263 -47 14
264 -47 14
265 22 46
266 22 46
267 22 46
268 -26 43
269 -26 43
270 -26 43
271 -42 7
272 -42 7
273 -20 -50
274 -20 -50
275 -20 -50
276 -20 -50
277 -20 -50
278 29 -32
279 29 -32
280 29 -32
281 -34 -44
282 -34 -44
283 -34 -44
284 -34 -44
285 -38 5
286 -38 5
287 -38 5
288 17 -20
289 17 -20
290 17 -20
291 17 -20
292 17 -20
293 -4 22
294 -4 22
295 -4 22
296 -4 22
297 -4 22
298 -4 22
299 49 -25
300 49 -25
301 49 -25
302 49 -25
303 20 14
304 20 14
305 20 14
306 20 14
307 20 14
308 -29 -30
309 -29 -30
310 -29 -30
311 -1 -37
312 -1 -37
313 -1 -37
314 10 -34
315 10 -34
316 10 -34
317 -27 -10
318 -27 -10
319 -27 -10
320 -27 -10
321 -1 -50
322 -1 -50
323 -1 -50
324 -1 -50
325 -1 -50
326 -1 -50
327 -1 -50
328 8 4
329 8 4
330 27 46
331 27 46
332 27 46
333 -8 -21
334 -8 -21
335 -8 -21
336 32 -2
337 32 -2
338 32 -2
339 5 21
340 5 21
341 -3 -31
342 -3 -31
343 -3 -31
344 -34 0
345 -34 0
346 -6 8
347 -6 8
348 -44 -35
349 -44 -35
350 -44 -35
351 -44 -35
352 -12 4
353 -12 4
354 -12 4
355 -12 4
356 -38 -8
357 -38 -8
358 -38 -8
359 15 0
360 15 0
361 15 0
362 -27 -1
363 -27 -1
364 -27 -1
365 -27 -1
366 16 -43
367 16 -43
368 16 -43
369 -49 -46
370 -49 -46
371 -49 -46
372 -49 -46
373 28 25
374 28 25
375 28 25
376 28 25
377 27 44
378 27 44
379 27 44
380 27 44
381 27 44
382 -27 -47
383 -27 -47
384 -27 -47
385 24 34
386 24 34
387 24 34
388 24 34
DEMAND_SECTION
1 0
2 200
3 100
4 50
5 10
6 10
7 10
8 200
9 50
10 200
11 200
12 10
13 10
14 10
15 10
16 200
17 200
18 50
19 200
20 100
21 50
22 10
23 10
24 200
25 10
26 100
27 50
28 10
29 10
30 100
31 50
32 10
33 10
34 10
35 200
36 100
37 10
38 10
39 10
40 100
41 10
42 10
43 10
44 200
45 200
46 100
47 10
48 10
49 10
50 10
51 200
52 100
53 50
54 10
55 10
56 10
57 10
58 200
59 100
60 50
61 10
62 200
63 50
64 10
65 200
66 50
67 10
68 10
69 10
70 100
71 50
72 10
73 10
74 100
75 50
76 10
77 10
78 10
79 10
80 200
81 200
82 50
83 10
84 10
85 10
86 10
87 200
88 100
89 10
90 10
91 100
92 50
93 10
94 10
95 10
96 200
97 200
98 10
99 100
100 50
101 10
102 10
103 200
104 200
105 50
106 10
107 10
108 10
109 10
110 100
111 50
112 10
113 100
114 50
115 10
116 10
117 200
118 50
119 10
120 10
121 10
122 10
123 200
124 200
125 10
126 10
127 10
128 200
129 100
130 50
131 200
132 100
133 50
134 200
135 200
136 10
137 10
138 10
139 10
140 200
141 200
142 50
143 10
144 200
145 10
146 10
147 10
148 200
149 200
150 50
151 200
152 50
153 10
154 100
155 10
156 10
157 10
158 10
159 200
160 200
161 50
162 200
163 200
164 200
165 100
166 10
167 10
168 200
169 200
170 50
171 10
172 10
173 200
174 50
175 10
176 10
177 10
178 10
179 200
180 200
181 200
182 10
183 10
184 200
185 100
186 10
187 200
188 50
189 10
190 10
191 200
192 200
193 10
194 10
195 10
196 100
197 10
198 10
199 10
200 10
201 100
202 10
203 10
204 10
205 100
206 50
207 10
208 10
209 10
210 10
211 100
212 10
213 10
214 10
215 200
216 100
217 10
218 100
219 50
220 200
221 200
222 50
223 10
224 10
225 200
226 100
227 200
228 10
229 10
230 10
231 10
232 200
233 200
234 10
235 10
236 10
237 10
238 200
239 10
240 10
241 200
242 10
243 10
244 10
245 200
246 200
247 10
248 10
249 10
250 10
251 100
252 10
253 10
254 10
255 10
256 200
257 100
258 50
259 10
260 200
261 10
262 200
263 200
264 100
265 200
266 200
267 10
268 200
269 100
270 10
271 200
272 10
273 200
274 200
275 50
276 10
277 10
278 100
279 50
280 10
281 100
282 50
283 10
284 10
285 200
286 200
287 10
288 100
289 50
290 10
291 10
292 10
293 100
294 50
295 10
296 10
297 10
298 10
299 200
300 100
301 50
302 10
303 200
304 100
305 10
306 10
307 10
308 200
309 50
310 10
311 200
312 100
313 10
314 200
315 10
316 10
317 200
318 100
319 10
320 10
321 200
322 200
323 50
324 10
325 10
326 10
327 10
328 200
329 200
330 200
331 100
332 10
333 200
334 50
335 10
336 200
337 200
338 10
339 100
340 50
341 200
342 100
343 10
344 200
345 10
346 200
347 50
348 200
349 100
350 50
351 10
352 200
353 100
354 10
355 10
356 200
357 50
358 10
359 200
360 200
361 50
362 200
363 10
364 10
365 10
366 200
367 100
368 10
369 100
370 50
371 10
372 10
373 200
374 50
375 10
376 10
377 100
378 50
379 10
380 10
381 10
382 200
383 100
384 10
385 100
386 10
387 10
388 10
DEPOT_SECTION
1
-1
EOF