Normalized Data/p03_26_normalized_splitx10_0.sol
387 -3 2 273 276 275 272 274 381 382 383 223 221 -4 5 1 6 116 120 117 119 121 118 111 109 110 82 84 85 80 83 81 -13 14 11 12 152 151 180 181 182 179 172 173 175 176 177 174 371 368 369 370 49 48 -18 247 248 244 245 246 249 20 21 19 22 277 278 279 197 198 -25 28 386 387 384 385 139 141 142 140 372 373 375 374 -26 27 376 224 225 160 159 158 -43 266 264 265 329 330 331 377 380 379 378 -50 53 52 54 51 55 56 235 232 233 231 236 234 339 338 -60 58 59 57 313 237 238 239 340 342 -72 71 69 70 128 127 129 99 98 101 100 268 269 267 -74 78 299 300 301 298 217 218 95 97 96 -76 75 77 73 192 193 194 191 190 337 335 336 -91 92 94 90 93 15 16 17 347 350 349 348 -108 102 103 105 107 104 106 196 199 195 23 24 287 290 288 291 289 -125 124 147 148 149 260 259 310 312 311 -126 123 122 89 87 86 88 333 334 332 -131 132 130 9 10 134 138 -133 137 135 136 281 283 282 280 150 47 46 45 44 309 308 -162 161 366 365 367 39 40 41 42 155 153 156 154 157 314 315 -165 166 163 164 356 355 357 67 68 66 65 64 362 363 364 229 228 -168 167 171 214 215 216 112 114 115 113 251 250 -170 169 219 222 220 307 317 319 318 316 -178 306 304 303 305 302 79 204 205 209 207 206 208 -203 200 201 202 31 30 32 33 29 62 63 61 284 285 286 -226 361 145 144 143 146 8 7 354 352 353 -227 230 344 343 270 271 262 261 263 -241 243 242 240 187 189 188 186 34 37 35 36 38 213 210 211 212 252 254 253 -297 292 295 296 294 293 258 255 257 256 346 345 351 -320 325 321 324 322 326 323 184 185 183 341 -327 328 359 358 360 0 





OBJ=
2908.730
BEST_KNOWN=
0.000